50, 62425
738, 2551
406, 2552
534, 2553
746, 2554
759, 2555
121, 2556
428, 2557
406, 2558
492, 2559
619, 2560
140, 2561
47, 2562
856, 2563
563, 2564
862, 2565
227, 2566
360, 2567
66, 2568
879, 2569
558, 2570
389, 2571
522, 2572
731, 2573
2, 2574
369, 2575
817, 2576
620, 2577
999, 2578
601, 2579
399, 2580
112, 2581
980, 2582
659, 2583
987, 2584
782, 2585
339, 2586
785, 2587
897, 2588
345, 2589
336, 2590
189, 2591
158, 2592
235, 2593
418, 2594
314, 2595
522, 2596
483, 2597
40, 2598
841, 2599
772, 2600
